data/mip_solutions/furman_sahinidis/reduced_transportation/8sp-fs1_gurobi.sol
Elapsed time: 0.100924968719
Nodes explored: 0
Upper bound: 11.0
Lower bound: 11.0
y[0,0]=1
y[0,3]=1
y[1,0]=1
y[1,3]=1
y[2,0]=1
y[2,1]=1
y[2,2]=1
y[3,0]=1
y[3,3]=1
y[4,0]=1
y[5,0]=1
q[0,6,0,6]=1202.72
q[0,6,3,7]=184.27
q[0,7,3,7]=1513.08
q[1,2,0,2]=25.92
q[1,3,0,3]=51.84
q[1,4,0,4]=401.76
q[1,5,0,5]=123.12
q[1,6,0,6]=1.70530256582e-13
q[1,6,3,7]=106.92
q[1,7,3,7]=100.44
q[2,4,0,4]=350.36
q[2,4,2,4]=1000.0
q[2,5,0,5]=413.82
q[2,6,0,6]=134.11
q[2,6,1,6]=136.3
q[2,6,1,7]=88.96
q[2,7,1,7]=174.24
q[3,3,0,4]=31.68
q[3,4,0,4]=245.52
q[3,5,0,5]=75.24
q[3,6,3,7]=65.34
q[3,7,3,7]=31.68
q[4,1,0,1]=2084.28
q[4,2,0,2]=252.64
q[4,3,0,3]=505.28
q[4,4,0,4]=2557.98
q[5,0,0,1]=143.77
q[5,0,0,2]=45.52
q[5,0,0,3]=91.04
q[5,0,0,4]=1435.94
q[5,0,0,5]=927.2
